solution status: node limit reached
objective value:                                    5
x#2                                                 1 	(obj:0)
x#5                                                 1 	(obj:0)
x#6                                                 1 	(obj:0)
x#8                                                 1 	(obj:0)
x#10                                                1 	(obj:0)
x#11                                                1 	(obj:0)
x#12                                                1 	(obj:0)
x#16                                                1 	(obj:0)
x#18                                                1 	(obj:0)
x#20                                                1 	(obj:0)
x#22                                                1 	(obj:0)
x#25                                                1 	(obj:0)
x#28                                                1 	(obj:0)
x#30                                                1 	(obj:0)
x#32                                                1 	(obj:0)
x#35                                                1 	(obj:0)
x#36                                                1 	(obj:0)
x#40                                                1 	(obj:0)
x#42                                                1 	(obj:0)
x#43                                                1 	(obj:0)
x#49                                                1 	(obj:0)
x#50                                                1 	(obj:0)
x#51                                                1 	(obj:0)
x#54                                                1 	(obj:0)
x#57                                                1 	(obj:0)
x#58                                                1 	(obj:0)
x#67                                                1 	(obj:0)
x#68                                                1 	(obj:0)
x#69                                                1 	(obj:0)
x#71                                                1 	(obj:0)
x#72                                                1 	(obj:0)
x#73                                                1 	(obj:0)
x#74                                                1 	(obj:0)
x#75                                                1 	(obj:0)
x#77                                                1 	(obj:0)
x#78                                                1 	(obj:0)
x#80                                                1 	(obj:0)
x#81                                                1 	(obj:0)
x#82                                                1 	(obj:0)
x#83                                                1 	(obj:0)
x#84                                                1 	(obj:0)
x#85                                                1 	(obj:0)
x#87                                                1 	(obj:0)
x#88                                                1 	(obj:0)
x#90                                                1 	(obj:0)
x#94                                                1 	(obj:0)
x#95                                                1 	(obj:0)
x#96                                                1 	(obj:0)
x#98                                                1 	(obj:0)
x#104                                               1 	(obj:0)
x#106                                               1 	(obj:0)
x#108                                               1 	(obj:0)
x#110                                               1 	(obj:0)
x#111                                               1 	(obj:0)
x#112                                               1 	(obj:0)
x#116                                               1 	(obj:0)
x#124                                               1 	(obj:0)
x#125                                               1 	(obj:0)
x#126                                               1 	(obj:0)
x#127                                               1 	(obj:0)
x#129                                               1 	(obj:0)
x#130                                               1 	(obj:0)
x#132                                               1 	(obj:0)
x#134                                               1 	(obj:0)
x#136                                               1 	(obj:0)
x#137                                               1 	(obj:0)
x#138                                               1 	(obj:0)
x#139                                               1 	(obj:0)
x#140                                               1 	(obj:0)
x#142                                               1 	(obj:0)
x#144                                               1 	(obj:0)
x#148                                               1 	(obj:0)
x#149                                               1 	(obj:0)
x#151                                               1 	(obj:0)
x#152                                               1 	(obj:0)
x#154                                               1 	(obj:0)
x#155                                               1 	(obj:0)
x#157                                               1 	(obj:0)
x#158                                               1 	(obj:0)
z#20                                                1 	(obj:1)
z#43                                                1 	(obj:1)
z#50                                                1 	(obj:1)
z#54                                                1 	(obj:1)
z#130                                               1 	(obj:1)
